100
150
100
97
97
97
95
95
95
94
94
94
94
93
93
93
92
92
90
89
86
85
83
82
82
81
79
78
77
76
75
74
74
74
74
74
73
73
72
71
71
71
70
69
68
66
66
65
64
64
64
63
63
62
62
62
61
61
61
59
59
59
58
58
57
57
55
54
52
50
49
48
47
46
46
45
45
44
44
44
42
42
41
41
40
39
39
39
37
37
36
36
36
35
35
35
32
32
32
31
30
30
